instances/knapsack/discrete/knapsack_70_2.lp
\ Model knapsack_70_2
\ LP format - for model browsing. Use MPS format to capture full model detail.
\ Signature: 0x9699bb600e1f4c54
Minimize
  - 40 x[0] - 41 x[1] - 46 x[2] - 62 x[3] - 12 x[4] - 43 x[5] - 88 x[6]
   - 34 x[7] - 89 x[8] - x[9] - 17 x[10] - 93 x[11] - 25 x[12] - 8 x[13]
   - 73 x[14] - 86 x[15] - 12 x[16] - 40 x[17] - 65 x[18] - 32 x[19]
   - 12 x[20] - 5 x[21] - 98 x[22] - 74 x[23] - 71 x[24] - 17 x[25]
   - 54 x[26] - 82 x[27] - 64 x[28] - 59 x[29] - 83 x[30] - 2 x[31]
   - 74 x[32] - 9 x[33] - 26 x[34] - 47 x[35] - 27 x[36] - 93 x[37]
   - 97 x[38] - 78 x[39] - 10 x[40] - 60 x[41] - 88 x[42] - 93 x[43]
   - 93 x[44] - 9 x[45] - 63 x[46] - 47 x[47] - 43 x[48] - 100 x[49]
   - 25 x[50] - 65 x[51] - 25 x[52] - 3 x[53] - 14 x[54] - 60 x[55]
   - 49 x[56] - 34 x[57] - 74 x[58] - 77 x[59] - 74 x[60] - 84 x[61]
   - 68 x[62] - 76 x[63] - 81 x[64] - 83 x[65] - 39 x[66] - 20 x[67]
   - 83 x[68] - 24 x[69]
Subject To
 primal_upper: 70 x[0] + 94 x[1] + 68 x[2] + 65 x[3] + 6 x[4] + 44 x[5]
   + 39 x[6] + 66 x[7] + 59 x[8] + 68 x[9] + 50 x[10] + 5 x[11] + 18 x[12]
   + 94 x[13] + 87 x[14] + 71 x[15] + 59 x[16] + 58 x[17] + 95 x[18]
   + 60 x[19] + 75 x[20] + 94 x[21] + 14 x[22] + 93 x[23] + 3 x[24]
   + 54 x[25] + 100 x[26] + 42 x[27] + 80 x[28] + 93 x[29] + 28 x[30]
   + 90 x[31] + 38 x[32] + 79 x[33] + 18 x[34] + 87 x[35] + 70 x[36]
   + 35 x[37] + 74 x[38] + 21 x[39] + 97 x[40] + 24 x[41] + 44 x[42]
   + 60 x[43] + 73 x[44] + 29 x[45] + 44 x[46] + 20 x[47] + 33 x[48]
   + 98 x[49] + 17 x[50] + 2 x[51] + 35 x[52] + 22 x[53] + 71 x[54]
   + 66 x[55] + 75 x[56] + 41 x[57] + 26 x[58] + 12 x[59] + 91 x[60]
   + 33 x[61] + 94 x[62] + 57 x[63] + 2 x[64] + 6 x[65] + 59 x[66]
   + 97 x[67] + 62 x[68] + 4 x[69] + 7 r[0] + 9.4 r[1] + 6.8 r[2]
   + 6.5 r[3] + 0.6 r[4] + 4.4 r[5] + 3.9 r[6] + 6.6 r[7] + 5.9 r[8]
   + 6.8 r[9] + 5 r[10] + 0.5 r[11] + 1.8 r[12] + 9.4 r[13] + 8.7 r[14]
   + 7.1 r[15] + 5.9 r[16] + 5.8 r[17] + 9.5 r[18] + 6 r[19] + 7.5 r[20]
   + 9.4 r[21] + 1.4 r[22] + 9.3 r[23] + 0.3 r[24] + 5.4 r[25] + 10 r[26]
   + 4.2 r[27] + 8 r[28] + 9.3 r[29] + 2.8 r[30] + 9 r[31] + 3.8 r[32]
   + 7.9 r[33] + 1.8 r[34] + 8.7 r[35] + 7 r[36] + 3.5 r[37] + 7.4 r[38]
   + 2.1 r[39] + 9.7 r[40] + 2.4 r[41] + 4.4 r[42] + 6 r[43] + 7.3 r[44]
   + 2.9 r[45] + 4.4 r[46] + 2 r[47] + 3.3 r[48] + 9.8 r[49] + 1.7 r[50]
   + 0.2 r[51] + 3.5 r[52] + 2.2 r[53] + 7.1 r[54] + 6.6 r[55] + 7.5 r[56]
   + 4.1 r[57] + 2.6 r[58] + 1.2 r[59] + 9.1 r[60] + 3.3 r[61] + 9.4 r[62]
   + 5.7 r[63] + 0.2 r[64] + 0.6 r[65] + 5.9 r[66] + 9.7 r[67] + 6.2 r[68]
   + 0.4 r[69] <= 357
 primal_lower: 2.60583172628839 x[0] + 3.274221041247094 x[1]
   + 4.200643894827384 x[2] + 0.9965744562010947 x[3]
   + 3.66816094682661 x[4] + 2.57897502989616 x[5] + 2.429647250020341 x[6]
   + 2.318429062014261 x[7] + 3.701721609068477 x[8]
   + 0.0951167167811866 x[9] + 3.234224664598638 x[10]
   + 2.798423660206943 x[11] + 3.311775377797423 x[12]
   + 1.520870661404883 x[13] + 1.926618820333572 x[14]
   + 3.749075480132425 x[15] + 0.8526051805818473 x[16]
   + 1.973342342380007 x[17] + 0.5195539979968385 x[18]
   + 2.384811726470293 x[19] + 0.8643777928771929 x[20]
   + 2.345095284402652 x[21] + 1.43660093619134 x[22]
   + 3.699356007872128 x[23] + 3.230959036093817 x[24]
   + 0.5161668343372154 x[25] + 3.141708519231056 x[26]
   + 1.70766906464098 x[27] + 0.6303633468755081 x[28]
   + 1.883011408889632 x[29] + 1.137048117243071 x[30]
   + 3.906754400961653 x[31] + 0.660396672119531 x[32]
   + 3.848406707174699 x[33] + 0.5610651015320886 x[34]
   + 1.721907519350198 x[35] + 3.96858013658053 x[36]
   + 2.494428334913349 x[37] + 3.484005340393127 x[38]
   + 1.827525677775755 x[39] + 1.457772444190656 x[40]
   + 3.00425894414043 x[41] + 0.2358505282638942 x[42]
   + 1.357749420682199 x[43] + 0.5115945114285998 x[44]
   + 0.5636088888420119 x[45] + 2.527976136792245 x[46]
   + 0.8485003970912878 x[47] + 1.1910067311456 x[48]
   + 2.358536976007 x[49] + 1.917770607411552 x[50]
   + 0.9822126043621732 x[51] + 1.132100126021153 x[52]
   + 1.653678805232942 x[53] + 3.180692374572232 x[54]
   + 3.169220493626649 x[55] + 1.097391112758549 x[56]
   + 1.587224947191265 x[57] + 2.084384860000831 x[58]
   + 0.063562840194 x[59] + 1.485266252973688 x[60]
   + 2.759214314250702 x[61] + 1.701065447188053 x[62]
   + 0.0153367046712399 x[63] + 0.8096963678445218 x[64]
   + 0.683695930095277 x[65] + 2.264848874271432 x[66]
   + 3.141933132528704 x[67] + 0.3838857593739796 x[68]
   + 3.175886462939638 x[69] + 17 u[0] + 90 u[1] + 20 u[2] + 41 u[3]
   + 70 u[4] + 51 u[5] + 79 u[6] + 17 u[7] + 67 u[8] + 28 u[9] + 41 u[10]
   + 81 u[11] + 50 u[12] + 38 u[13] + 86 u[14] + 78 u[15] + 7 u[16]
   + 54 u[17] + 91 u[18] + 12 u[19] + 83 u[20] + 33 u[21] + 26 u[22]
   + 28 u[23] + 58 u[24] + 58 u[25] + 32 u[26] + 25 u[27] + 91 u[28]
   + 21 u[29] + 27 u[30] + 33 u[31] + 97 u[32] + 51 u[33] + 30 u[34]
   + 23 u[35] + 18 u[36] + 10 u[37] + 98 u[38] + 56 u[39] + 29 u[40]
   + 67 u[41] + 12 u[42] + 55 u[43] + 77 u[44] + 4 u[45] + 3 u[46]
   + 51 u[47] + 57 u[48] + 78 u[49] + 88 u[50] + 34 u[51] + 59 u[52]
   + 14 u[53] + 34 u[54] + 9 u[55] + 51 u[56] + 76 u[57] + 6 u[58]
   + 12 u[59] + 50 u[60] + 64 u[61] + 69 u[62] + 8 u[63] + 81 u[64]
   + 10 u[65] + 42 u[66] + 44 u[67] + 34 u[68] + 23 u[69] <= 30057
 mccormick1[0]: - u[0] + r[0] <= 0
 mccormick1[1]: - u[1] + r[1] <= 0
 mccormick1[2]: - u[2] + r[2] <= 0
 mccormick1[3]: - u[3] + r[3] <= 0
 mccormick1[4]: - u[4] + r[4] <= 0
 mccormick1[5]: - u[5] + r[5] <= 0
 mccormick1[6]: - u[6] + r[6] <= 0
 mccormick1[7]: - u[7] + r[7] <= 0
 mccormick1[8]: - u[8] + r[8] <= 0
 mccormick1[9]: - u[9] + r[9] <= 0
 mccormick1[10]: - u[10] + r[10] <= 0
 mccormick1[11]: - u[11] + r[11] <= 0
 mccormick1[12]: - u[12] + r[12] <= 0
 mccormick1[13]: - u[13] + r[13] <= 0
 mccormick1[14]: - u[14] + r[14] <= 0
 mccormick1[15]: - u[15] + r[15] <= 0
 mccormick1[16]: - u[16] + r[16] <= 0
 mccormick1[17]: - u[17] + r[17] <= 0
 mccormick1[18]: - u[18] + r[18] <= 0
 mccormick1[19]: - u[19] + r[19] <= 0
 mccormick1[20]: - u[20] + r[20] <= 0
 mccormick1[21]: - u[21] + r[21] <= 0
 mccormick1[22]: - u[22] + r[22] <= 0
 mccormick1[23]: - u[23] + r[23] <= 0
 mccormick1[24]: - u[24] + r[24] <= 0
 mccormick1[25]: - u[25] + r[25] <= 0
 mccormick1[26]: - u[26] + r[26] <= 0
 mccormick1[27]: - u[27] + r[27] <= 0
 mccormick1[28]: - u[28] + r[28] <= 0
 mccormick1[29]: - u[29] + r[29] <= 0
 mccormick1[30]: - u[30] + r[30] <= 0
 mccormick1[31]: - u[31] + r[31] <= 0
 mccormick1[32]: - u[32] + r[32] <= 0
 mccormick1[33]: - u[33] + r[33] <= 0
 mccormick1[34]: - u[34] + r[34] <= 0
 mccormick1[35]: - u[35] + r[35] <= 0
 mccormick1[36]: - u[36] + r[36] <= 0
 mccormick1[37]: - u[37] + r[37] <= 0
 mccormick1[38]: - u[38] + r[38] <= 0
 mccormick1[39]: - u[39] + r[39] <= 0
 mccormick1[40]: - u[40] + r[40] <= 0
 mccormick1[41]: - u[41] + r[41] <= 0
 mccormick1[42]: - u[42] + r[42] <= 0
 mccormick1[43]: - u[43] + r[43] <= 0
 mccormick1[44]: - u[44] + r[44] <= 0
 mccormick1[45]: - u[45] + r[45] <= 0
 mccormick1[46]: - u[46] + r[46] <= 0
 mccormick1[47]: - u[47] + r[47] <= 0
 mccormick1[48]: - u[48] + r[48] <= 0
 mccormick1[49]: - u[49] + r[49] <= 0
 mccormick1[50]: - u[50] + r[50] <= 0
 mccormick1[51]: - u[51] + r[51] <= 0
 mccormick1[52]: - u[52] + r[52] <= 0
 mccormick1[53]: - u[53] + r[53] <= 0
 mccormick1[54]: - u[54] + r[54] <= 0
 mccormick1[55]: - u[55] + r[55] <= 0
 mccormick1[56]: - u[56] + r[56] <= 0
 mccormick1[57]: - u[57] + r[57] <= 0
 mccormick1[58]: - u[58] + r[58] <= 0
 mccormick1[59]: - u[59] + r[59] <= 0
 mccormick1[60]: - u[60] + r[60] <= 0
 mccormick1[61]: - u[61] + r[61] <= 0
 mccormick1[62]: - u[62] + r[62] <= 0
 mccormick1[63]: - u[63] + r[63] <= 0
 mccormick1[64]: - u[64] + r[64] <= 0
 mccormick1[65]: - u[65] + r[65] <= 0
 mccormick1[66]: - u[66] + r[66] <= 0
 mccormick1[67]: - u[67] + r[67] <= 0
 mccormick1[68]: - u[68] + r[68] <= 0
 mccormick1[69]: - u[69] + r[69] <= 0
 mccormick2[0]: - x[0] + r[0] <= 0
 mccormick2[1]: - x[1] + r[1] <= 0
 mccormick2[2]: - x[2] + r[2] <= 0
 mccormick2[3]: - x[3] + r[3] <= 0
 mccormick2[4]: - x[4] + r[4] <= 0
 mccormick2[5]: - x[5] + r[5] <= 0
 mccormick2[6]: - x[6] + r[6] <= 0
 mccormick2[7]: - x[7] + r[7] <= 0
 mccormick2[8]: - x[8] + r[8] <= 0
 mccormick2[9]: - x[9] + r[9] <= 0
 mccormick2[10]: - x[10] + r[10] <= 0
 mccormick2[11]: - x[11] + r[11] <= 0
 mccormick2[12]: - x[12] + r[12] <= 0
 mccormick2[13]: - x[13] + r[13] <= 0
 mccormick2[14]: - x[14] + r[14] <= 0
 mccormick2[15]: - x[15] + r[15] <= 0
 mccormick2[16]: - x[16] + r[16] <= 0
 mccormick2[17]: - x[17] + r[17] <= 0
 mccormick2[18]: - x[18] + r[18] <= 0
 mccormick2[19]: - x[19] + r[19] <= 0
 mccormick2[20]: - x[20] + r[20] <= 0
 mccormick2[21]: - x[21] + r[21] <= 0
 mccormick2[22]: - x[22] + r[22] <= 0
 mccormick2[23]: - x[23] + r[23] <= 0
 mccormick2[24]: - x[24] + r[24] <= 0
 mccormick2[25]: - x[25] + r[25] <= 0
 mccormick2[26]: - x[26] + r[26] <= 0
 mccormick2[27]: - x[27] + r[27] <= 0
 mccormick2[28]: - x[28] + r[28] <= 0
 mccormick2[29]: - x[29] + r[29] <= 0
 mccormick2[30]: - x[30] + r[30] <= 0
 mccormick2[31]: - x[31] + r[31] <= 0
 mccormick2[32]: - x[32] + r[32] <= 0
 mccormick2[33]: - x[33] + r[33] <= 0
 mccormick2[34]: - x[34] + r[34] <= 0
 mccormick2[35]: - x[35] + r[35] <= 0
 mccormick2[36]: - x[36] + r[36] <= 0
 mccormick2[37]: - x[37] + r[37] <= 0
 mccormick2[38]: - x[38] + r[38] <= 0
 mccormick2[39]: - x[39] + r[39] <= 0
 mccormick2[40]: - x[40] + r[40] <= 0
 mccormick2[41]: - x[41] + r[41] <= 0
 mccormick2[42]: - x[42] + r[42] <= 0
 mccormick2[43]: - x[43] + r[43] <= 0
 mccormick2[44]: - x[44] + r[44] <= 0
 mccormick2[45]: - x[45] + r[45] <= 0
 mccormick2[46]: - x[46] + r[46] <= 0
 mccormick2[47]: - x[47] + r[47] <= 0
 mccormick2[48]: - x[48] + r[48] <= 0
 mccormick2[49]: - x[49] + r[49] <= 0
 mccormick2[50]: - x[50] + r[50] <= 0
 mccormick2[51]: - x[51] + r[51] <= 0
 mccormick2[52]: - x[52] + r[52] <= 0
 mccormick2[53]: - x[53] + r[53] <= 0
 mccormick2[54]: - x[54] + r[54] <= 0
 mccormick2[55]: - x[55] + r[55] <= 0
 mccormick2[56]: - x[56] + r[56] <= 0
 mccormick2[57]: - x[57] + r[57] <= 0
 mccormick2[58]: - x[58] + r[58] <= 0
 mccormick2[59]: - x[59] + r[59] <= 0
 mccormick2[60]: - x[60] + r[60] <= 0
 mccormick2[61]: - x[61] + r[61] <= 0
 mccormick2[62]: - x[62] + r[62] <= 0
 mccormick2[63]: - x[63] + r[63] <= 0
 mccormick2[64]: - x[64] + r[64] <= 0
 mccormick2[65]: - x[65] + r[65] <= 0
 mccormick2[66]: - x[66] + r[66] <= 0
 mccormick2[67]: - x[67] + r[67] <= 0
 mccormick2[68]: - x[68] + r[68] <= 0
 mccormick2[69]: - x[69] + r[69] <= 0
 mccormick3[0]: x[0] + u[0] - r[0] <= 1
 mccormick3[1]: x[1] + u[1] - r[1] <= 1
 mccormick3[2]: x[2] + u[2] - r[2] <= 1
 mccormick3[3]: x[3] + u[3] - r[3] <= 1
 mccormick3[4]: x[4] + u[4] - r[4] <= 1
 mccormick3[5]: x[5] + u[5] - r[5] <= 1
 mccormick3[6]: x[6] + u[6] - r[6] <= 1
 mccormick3[7]: x[7] + u[7] - r[7] <= 1
 mccormick3[8]: x[8] + u[8] - r[8] <= 1
 mccormick3[9]: x[9] + u[9] - r[9] <= 1
 mccormick3[10]: x[10] + u[10] - r[10] <= 1
 mccormick3[11]: x[11] + u[11] - r[11] <= 1
 mccormick3[12]: x[12] + u[12] - r[12] <= 1
 mccormick3[13]: x[13] + u[13] - r[13] <= 1
 mccormick3[14]: x[14] + u[14] - r[14] <= 1
 mccormick3[15]: x[15] + u[15] - r[15] <= 1
 mccormick3[16]: x[16] + u[16] - r[16] <= 1
 mccormick3[17]: x[17] + u[17] - r[17] <= 1
 mccormick3[18]: x[18] + u[18] - r[18] <= 1
 mccormick3[19]: x[19] + u[19] - r[19] <= 1
 mccormick3[20]: x[20] + u[20] - r[20] <= 1
 mccormick3[21]: x[21] + u[21] - r[21] <= 1
 mccormick3[22]: x[22] + u[22] - r[22] <= 1
 mccormick3[23]: x[23] + u[23] - r[23] <= 1
 mccormick3[24]: x[24] + u[24] - r[24] <= 1
 mccormick3[25]: x[25] + u[25] - r[25] <= 1
 mccormick3[26]: x[26] + u[26] - r[26] <= 1
 mccormick3[27]: x[27] + u[27] - r[27] <= 1
 mccormick3[28]: x[28] + u[28] - r[28] <= 1
 mccormick3[29]: x[29] + u[29] - r[29] <= 1
 mccormick3[30]: x[30] + u[30] - r[30] <= 1
 mccormick3[31]: x[31] + u[31] - r[31] <= 1
 mccormick3[32]: x[32] + u[32] - r[32] <= 1
 mccormick3[33]: x[33] + u[33] - r[33] <= 1
 mccormick3[34]: x[34] + u[34] - r[34] <= 1
 mccormick3[35]: x[35] + u[35] - r[35] <= 1
 mccormick3[36]: x[36] + u[36] - r[36] <= 1
 mccormick3[37]: x[37] + u[37] - r[37] <= 1
 mccormick3[38]: x[38] + u[38] - r[38] <= 1
 mccormick3[39]: x[39] + u[39] - r[39] <= 1
 mccormick3[40]: x[40] + u[40] - r[40] <= 1
 mccormick3[41]: x[41] + u[41] - r[41] <= 1
 mccormick3[42]: x[42] + u[42] - r[42] <= 1
 mccormick3[43]: x[43] + u[43] - r[43] <= 1
 mccormick3[44]: x[44] + u[44] - r[44] <= 1
 mccormick3[45]: x[45] + u[45] - r[45] <= 1
 mccormick3[46]: x[46] + u[46] - r[46] <= 1
 mccormick3[47]: x[47] + u[47] - r[47] <= 1
 mccormick3[48]: x[48] + u[48] - r[48] <= 1
 mccormick3[49]: x[49] + u[49] - r[49] <= 1
 mccormick3[50]: x[50] + u[50] - r[50] <= 1
 mccormick3[51]: x[51] + u[51] - r[51] <= 1
 mccormick3[52]: x[52] + u[52] - r[52] <= 1
 mccormick3[53]: x[53] + u[53] - r[53] <= 1
 mccormick3[54]: x[54] + u[54] - r[54] <= 1
 mccormick3[55]: x[55] + u[55] - r[55] <= 1
 mccormick3[56]: x[56] + u[56] - r[56] <= 1
 mccormick3[57]: x[57] + u[57] - r[57] <= 1
 mccormick3[58]: x[58] + u[58] - r[58] <= 1
 mccormick3[59]: x[59] + u[59] - r[59] <= 1
 mccormick3[60]: x[60] + u[60] - r[60] <= 1
 mccormick3[61]: x[61] + u[61] - r[61] <= 1
 mccormick3[62]: x[62] + u[62] - r[62] <= 1
 mccormick3[63]: x[63] + u[63] - r[63] <= 1
 mccormick3[64]: x[64] + u[64] - r[64] <= 1
 mccormick3[65]: x[65] + u[65] - r[65] <= 1
 mccormick3[66]: x[66] + u[66] - r[66] <= 1
 mccormick3[67]: x[67] + u[67] - r[67] <= 1
 mccormick3[68]: x[68] + u[68] - r[68] <= 1
 mccormick3[69]: x[69] + u[69] - r[69] <= 1
Bounds
Binaries
 x[0] x[1] x[2] x[3] x[4] x[5] x[6] x[7] x[8] x[9] x[10] x[11] x[12] x[13]
 x[14] x[15] x[16] x[17] x[18] x[19] x[20] x[21] x[22] x[23] x[24] x[25]
 x[26] x[27] x[28] x[29] x[30] x[31] x[32] x[33] x[34] x[35] x[36] x[37]
 x[38] x[39] x[40] x[41] x[42] x[43] x[44] x[45] x[46] x[47] x[48] x[49]
 x[50] x[51] x[52] x[53] x[54] x[55] x[56] x[57] x[58] x[59] x[60] x[61]
 x[62] x[63] x[64] x[65] x[66] x[67] x[68] x[69] u[0] u[1] u[2] u[3] u[4]
 u[5] u[6] u[7] u[8] u[9] u[10] u[11] u[12] u[13] u[14] u[15] u[16] u[17]
 u[18] u[19] u[20] u[21] u[22] u[23] u[24] u[25] u[26] u[27] u[28] u[29]
 u[30] u[31] u[32] u[33] u[34] u[35] u[36] u[37] u[38] u[39] u[40] u[41]
 u[42] u[43] u[44] u[45] u[46] u[47] u[48] u[49] u[50] u[51] u[52] u[53]
 u[54] u[55] u[56] u[57] u[58] u[59] u[60] u[61] u[62] u[63] u[64] u[65]
 u[66] u[67] u[68] u[69] r[0] r[1] r[2] r[3] r[4] r[5] r[6] r[7] r[8] r[9]
 r[10] r[11] r[12] r[13] r[14] r[15] r[16] r[17] r[18] r[19] r[20] r[21]
 r[22] r[23] r[24] r[25] r[26] r[27] r[28] r[29] r[30] r[31] r[32] r[33]
 r[34] r[35] r[36] r[37] r[38] r[39] r[40] r[41] r[42] r[43] r[44] r[45]
 r[46] r[47] r[48] r[49] r[50] r[51] r[52] r[53] r[54] r[55] r[56] r[57]
 r[58] r[59] r[60] r[61] r[62] r[63] r[64] r[65] r[66] r[67] r[68] r[69]
End
