instances/knapsack/discrete_knapsack_uncertainty/knapsack_70_2.kp
27822
70
357

70 7.0 40
94 9.4 41
68 6.8 46
65 6.5 62
6 0.6 12
44 4.4 43
39 3.9 88
66 6.6 34
59 5.9 89
68 6.8 1
50 5.0 17
5 0.5 93
18 1.8 25
94 9.4 8
87 8.7 73
71 7.1 86
59 5.9 12
58 5.8 40
95 9.5 65
60 6.0 32
75 7.5 12
94 9.4 5
14 1.4 98
93 9.3 74
3 0.3 71
54 5.4 17
100 10.0 54
42 4.2 82
80 8.0 64
93 9.3 59
28 2.8 83
90 9.0 2
38 3.8 74
79 7.9 9
18 1.8 26
87 8.7 47
70 7.0 27
35 3.5 93
74 7.4 97
21 2.1 78
97 9.7 10
24 2.4 60
44 4.4 88
60 6.0 93
73 7.3 93
29 2.9 9
44 4.4 63
20 2.0 47
33 3.3 43
98 9.8 100
17 1.7 25
2 0.2 65
35 3.5 25
22 2.2 3
71 7.1 14
66 6.6 60
75 7.5 49
41 4.1 34
26 2.6 74
12 1.2 77
91 9.1 74
33 3.3 84
94 9.4 68
57 5.7 76
2 0.2 81
6 0.6 83
59 5.9 39
97 9.7 20
62 6.2 83
4 0.4 24

30057
300

[2.6058317262883897 3.2742210412470936 4.200643894827384 0.9965744562010947 3.66816094682661 2.5789750298961605 2.4296472500203405 2.3184290620142614 3.701721609068477 0.09511671678118663 3.2342246645986377 2.7984236602069434 3.311775377797423 1.5208706614048826 1.9266188203335717 3.749075480132425 0.8526051805818473 1.9733423423800072 0.5195539979968385 2.3848117264702933 0.8643777928771929 2.3450952844026522 1.43660093619134 3.699356007872128 3.230959036093817 0.5161668343372154 3.1417085192310563 1.70766906464098 0.6303633468755081 1.8830114088896317 1.1370481172430709 3.906754400961653 0.660396672119531 3.8484067071746986 0.5610651015320886 1.7219075193501976 3.9685801365805298 2.4944283349133487 3.484005340393127 1.8275256777757551 1.457772444190656 3.0042589441404304 0.2358505282638942 1.3577494206821987 0.5115945114285998 0.5636088888420119 2.5279761367922453 0.8485003970912878 1.1910067311456 2.3585369760069996 1.9177706074115517 0.9822126043621732 1.1321001260211527 1.6536788052329423 3.1806923745722324 3.169220493626649 1.0973911127585485 1.5872249471912654 2.0843848600008315 0.06356284019399995 1.4852662529736878 2.759214314250702 1.7010654471880533 0.015336704671239852 0.8096963678445218 0.683695930095277 2.264848874271432 3.141933132528704 0.38388575937397956 3.1758864629396384]

[17 90 20 41 70 51 79 17 67 28 41 81 50 38 86 78 7 54 91 12 83 33 26 28 58 58 32 25 91 21 27 33 97 51 30 23 18 10 98 56 29 67 12 55 77 4 3 51 57 78 88 34 59 14 34 9 51 76 6 12 50 64 69 8 81 10 42 44 34 23]
